# 2x2x2 UN
1.000000
9.705046439  0.000000000  0.000000000
0.000000000  9.705046439  0.000000000
0.000000000  0.000000000  9.742851920
N   U
32  32
Direct
0.25000000  0.75000000  0.00000000
0.00000000  0.50000000  0.00000000
0.75000000  0.75000000  0.00000000
0.50000000  0.50000000  0.00000000
0.00000000  0.00000000  0.00000000
0.50000000  0.00000000  0.00000000
0.25000000  0.25000000  0.00000000
0.75000000  0.25000000  0.00000000
0.25000000  0.00000000  0.25000000
0.00000000  0.25000000  0.25000000
0.50000000  0.75000000  0.25000000
0.75000000  0.50000000  0.25000000
0.50000000  0.25000000  0.25000000
0.75000000  0.00000000  0.25000000
0.25000000  0.50000000  0.25000000
0.00000000  0.75000000  0.25000000
0.25000000  0.75000000  0.50000000
0.00000000  0.50000000  0.50000000
0.75000000  0.75000000  0.50000000
0.50000000  0.50000000  0.50000000
0.00000000  0.00000000  0.50000000
0.50000000  0.00000000  0.50000000
0.25000000  0.25000000  0.50000000
0.75000000  0.25000000  0.50000000
0.25000000  0.00000000  0.75000000
0.00000000  0.25000000  0.75000000
0.50000000  0.75000000  0.75000000
0.75000000  0.50000000  0.75000000
0.50000000  0.25000000  0.75000000
0.75000000  0.00000000  0.75000000
0.25000000  0.50000000  0.75000000
0.00000000  0.75000000  0.75000000
0.25000000  0.50000000  0.00000000
0.75000000  0.00000000  0.00000000
0.50000000  0.25000000  0.00000000
0.75000000  0.50000000  0.00000000
0.50000000  0.75000000  0.00000000
0.00000000  0.75000000  0.00000000
0.25000000  0.00000000  0.00000000
0.00000000  0.25000000  0.00000000
0.25000000  0.75000000  0.25000000
0.50000000  0.50000000  0.25000000
0.75000000  0.75000000  0.25000000
0.75000000  0.25000000  0.25000000
0.50000000  0.00000000  0.25000000
0.25000000  0.25000000  0.25000000
0.00000000  0.50000000  0.25000000
0.00000000  0.00000000  0.25000000
0.25000000  0.50000000  0.50000000
0.75000000  0.00000000  0.50000000
0.50000000  0.25000000  0.50000000
0.75000000  0.50000000  0.50000000
0.50000000  0.75000000  0.50000000
0.00000000  0.75000000  0.50000000
0.25000000  0.00000000  0.50000000
0.00000000  0.25000000  0.50000000
0.25000000  0.75000000  0.75000000
0.50000000  0.50000000  0.75000000
0.75000000  0.75000000  0.75000000
0.75000000  0.25000000  0.75000000
0.50000000  0.00000000  0.75000000
0.25000000  0.25000000  0.75000000
0.00000000  0.50000000  0.75000000
0.00000000  0.00000000  0.75000000